RT is False
Default write of storage_offers_DA.csv just to have a file (but constraint should be inactive)
Reading model...
...model read.
creating competitive generators file...
...competitive generators recorded.
Loading data...
.. day-ahead data with real-time VRE data read.
Compiling instance...
...instance created.
Creating Offer Mitigation (model will solve as dispatch if TRUE)...
Solving...

Welcome to IBM(R) ILOG(R) CPLEX(R) Interactive Optimizer 12.9.0.0
  with Simplex, Mixed Integer & Barrier Optimizers
5725-A06 5725-A29 5724-Y48 5724-Y49 5724-Y54 5724-Y55 5655-Y21
Copyright IBM Corp. 1988, 2019.  All Rights Reserved.

Type 'help' for a list of available commands.
Type 'help' followed by a command name for more
information on commands.

CPLEX> Logfile 'cplex.log' closed.
Logfile 'C:\Users\llavin\Desktop\test919\logs\tmp3slm2ngx.cplex.log' open.
CPLEX> New value for parallel optimization mode: -1
CPLEX> New value for mixed integer optimality gap tolerance: 0.01
CPLEX> New value for integrality tolerance: 1e-09
CPLEX> New value for feasibility tolerance: 0.01
CPLEX> New value for deterministic time limit in ticks: 75000
CPLEX> Problem 'C:\Users\llavin\Desktop\test919\logs\tmprjr6472d.pyomo.lp' read.
Read time = 0.05 sec. (3.04 ticks)
CPLEX> Problem name         : C:\Users\llavin\Desktop\test919\logs\tmprjr6472d.pyomo.lp
Objective sense      : Minimize
Variables            :   26081  [Nneg: 1,  Box: 21616,  Free: 4464]
Objective nonzeros   :    2496
Linear constraints   :   27515  [Less: 14006,  Greater: 4416,  Equal: 9093]
  Nonzeros           :   89267
  RHS nonzeros       :   12270

Variables            : Min LB: -5000.000        Max UB: 1000000.       
Objective nonzeros   : Min   : 15.73158         Max   : 124.0997       
Linear constraints   :
  Nonzeros           : Min   : 0.8500000        Max   : 3000.000       
  RHS nonzeros       : Min   : 0.4083333        Max   : 5000.000       
CPLEX> CPXPARAM_Parallel                                -1
CPXPARAM_Simplex_Tolerances_Feasibility          0.01
CPXPARAM_DetTimeLimit                            75000
CPXPARAM_MIP_Tolerances_MIPGap                   0.01
CPXPARAM_MIP_Tolerances_Integrality              1.0000000000000001e-09
Parallel mode: opportunistic, using up to 32 threads for concurrent optimization.
Tried aggregator 1 time.
LP Presolve eliminated 21353 rows and 15463 columns.
Aggregator did 771 substitutions.
Reduced LP has 5391 rows, 9847 columns, and 31810 nonzeros.
Presolve time = 0.06 sec. (30.45 ticks)
Symmetry aggregator did 5563 additional substitutions.

Iteration log . . .
Iteration:     1   Dual objective     =             0.000000
Perturbation started.
Iteration:   101   Dual objective     =             0.000000
Iteration:   331   Dual objective     =             1.211998
Iteration:   579   Dual objective     =             1.725953
Iteration:   829   Dual objective     =             1.867900
Iteration:  1024   Dual objective     =             1.980371
Iteration:  1294   Dual objective     =             2.031659
Iteration:  1553   Dual objective     =             2.063534
Iteration:  1768   Dual objective     =        191206.639115
Iteration:  1970   Dual objective     =        413472.157901
Iteration:  2165   Dual objective     =        482653.196746
Iteration:  2350   Dual objective     =        493843.152253
Iteration:  2641   Dual objective     =        494509.815780
Iteration:  3059   Dual objective     =        495016.357218
Removing perturbation.
Using devex.

Primal simplex solved model.


Primal simplex - Optimal:  Objective =  4.9501419328e+05
Solution time =    0.16 sec.  Iterations = 1628 (977)
Deterministic time = 79.73 ticks  (507.84 ticks/sec)

CPLEX> Solution written to file 'C:\Users\llavin\Desktop\test919\logs\tmpqrgai4ui.cplex.sol'.
CPLEX> Exporting results... 
...storage offer mitigation file created
Converting model to MPEC...
...converted
NOTE: initial MIP solve with only storage competitive to get feasible solution
Solving...

Welcome to IBM(R) ILOG(R) CPLEX(R) Interactive Optimizer 12.9.0.0
  with Simplex, Mixed Integer & Barrier Optimizers
5725-A06 5725-A29 5724-Y48 5724-Y49 5724-Y54 5724-Y55 5655-Y21
Copyright IBM Corp. 1988, 2019.  All Rights Reserved.

Type 'help' for a list of available commands.
Type 'help' followed by a command name for more
information on commands.

CPLEX> Logfile 'cplex.log' closed.
Logfile 'C:\Users\llavin\Desktop\test919\logs\tmpunxzzcq0.cplex.log' open.
CPLEX> New value for parallel optimization mode: -1
CPLEX> New value for mixed integer optimality gap tolerance: 0.01
CPLEX> New value for integrality tolerance: 1e-09
CPLEX> New value for feasibility tolerance: 0.01
CPLEX> New value for deterministic time limit in ticks: 75000
CPLEX> Problem 'C:\Users\llavin\Desktop\test919\logs\tmpn4ceny4d.pyomo.lp' read.
Read time = 0.23 sec. (14.78 ticks)
CPLEX> Problem name         : C:\Users\llavin\Desktop\test919\logs\tmpn4ceny4d.pyomo.lp
Objective sense      : Maximize
Variables            :   53805  [Nneg: 1,  Box: 22000,  Free: 4464,
                                 Binary: 27340]
Objective nonzeros   :    8979
Linear constraints   :  123205  [Less: 41346,  Greater: 59096,  Equal: 22763]
  Nonzeros           :  291800
  RHS nonzeros       :   67464

Variables            : Min LB: -5000.000        Max UB: 1000000.       
Objective nonzeros   : Min   : 0.4083333        Max   : 722.0000       
Linear constraints   :
  Nonzeros           : Min   : 0.4083333        Max   : 1000000.       
  RHS nonzeros       : Min   : 0.4083333        Max   : 1000000.       
CPLEX> CPXPARAM_Parallel                                -1
CPXPARAM_Simplex_Tolerances_Feasibility          0.01
CPXPARAM_DetTimeLimit                            75000
CPXPARAM_MIP_Tolerances_MIPGap                   0.01
CPXPARAM_MIP_Tolerances_Integrality              1.0000000000000001e-09
Tried aggregator 3 times.
MIP Presolve eliminated 88643 rows and 18943 columns.
MIP Presolve added 3365 rows and 0 columns.
MIP Presolve modified 24808 coefficients.
Aggregator did 12963 substitutions.
Reduced MIP has 24964 rows, 21343 columns, and 71228 nonzeros.
Reduced MIP has 8411 binaries, 0 generals, 0 SOSs, and 0 indicators.
Presolve time = 0.30 sec. (176.05 ticks)
Probing fixed 403 vars, tightened 2832 bounds.
Probing time = 1.25 sec. (904.11 ticks)
Tried aggregator 2 times.
MIP Presolve eliminated 909 rows and 806 columns.
MIP Presolve modified 2191 coefficients.
Aggregator did 44 substitutions.
Reduced MIP has 24011 rows, 20493 columns, and 68472 nonzeros.
Reduced MIP has 8008 binaries, 0 generals, 0 SOSs, and 0 indicators.
Presolve time = 0.09 sec. (67.26 ticks)
Probing time = 0.05 sec. (16.34 ticks)
Clique table members: 6524.
MIP emphasis: balance optimality and feasibility.
MIP search method: dynamic search.
Parallel mode: opportunistic, using up to 32 threads.
Root relaxation solution time = 0.42 sec. (319.93 ticks)

        Nodes                                         Cuts/
   Node  Left     Objective  IInf  Best Integer    Best Bound    ItCnt     Gap

      0     0     8474.8939  1899                   8474.8939     7364         
      0     0     8474.8939   633                   Cuts: 980     7882         
      0     0     8464.0062   457                   Cuts: 639     8196         
      0     0     8464.0062   352                   Cuts: 355     8355         
      0     0     8457.4573   308                   Cuts: 142     8415         
      0     0     8457.4573   261                   Cuts: 113     8473         
      0     0     8457.4573   251                    Cuts: 75     8493         
      0     0     8457.4573   237                    Cuts: 51     8516         
      0     0     8457.4573   231                Flowcuts: 38     8531         
      0     3     8414.4650    13                     Cuts: 3     8537         
Elapsed time = 11.95 sec. (7611.68 ticks, tree = 0.02 MB, solutions = 0)
    508   209     8358.7735     3                   8442.2643     9769         
*   702   405      integral     0     8313.2409     8442.2643    10830    1.55%
*   717   287      integral     0     8330.7675     8442.2643    10247    1.34%
    952   485     8339.0047     7     8330.7675     8442.2643    12338    1.34%
   1331   720        cutoff           8330.7675     8442.2643    13284    1.34%
   1575   758     8385.1150     3     8330.7675     8442.2643    13452    1.34%
   1773   795        cutoff           8330.7675     8442.2643    13608    1.34%
   1947   806        cutoff           8330.7675     8442.2643    13673    1.34%
   2087   816     8370.0577     4     8330.7675     8442.2643    13791    1.34%
   2238   844     8413.9900     4     8330.7675     8442.2643    13994    1.34%
   2715   851     8371.1836     3     8330.7675     8442.2643    14054    1.34%
Elapsed time = 24.14 sec. (10584.88 ticks, tree = 6.41 MB, solutions = 3)
*  2716   914      integral     0     8413.9900     8442.2643    14522    0.34%
   3108   893        cutoff           8413.9900     8442.2643    14373    0.34%

Clique cuts applied:  42
Cover cuts applied:  1
Implied bound cuts applied:  70
Flow cuts applied:  520
Mixed integer rounding cuts applied:  26
Gomory fractional cuts applied:  29

Root node processing (before b&c):
  Real time             =   10.22 sec. (7571.09 ticks)
Parallel b&c, 32 threads:
  Real time             =   16.00 sec. (4743.13 ticks)
  Sync time (average)   =    0.62 sec.
  Wait time (average)   =    0.00 sec.
                          ------------
Total (root+branch&cut) =   26.22 sec. (12314.22 ticks)

Solution pool: 4 solutions saved.

MIP - Integer optimal, tolerance (0.01/1e-06):  Objective =  8.4139900276e+03
Current MIP best bound =  8.4422642843e+03 (gap = 28.2743, 0.34%)
Solution time =   26.25 sec.  Iterations = 15031  Nodes = 3235 (164)
Deterministic time = 12314.37 ticks  (469.12 ticks/sec)

CPLEX> Incumbent solution written to file 'C:\Users\llavin\Desktop\test919\logs\tmpf96q5i55.cplex.sol'.
CPLEX> NOTE: no warmstart specified for MIP iteration, default behavior is true
NOTE: resolving with all competitive generators using storage-only solution to warmstart
Solving...

Welcome to IBM(R) ILOG(R) CPLEX(R) Interactive Optimizer 12.9.0.0
  with Simplex, Mixed Integer & Barrier Optimizers
5725-A06 5725-A29 5724-Y48 5724-Y49 5724-Y54 5724-Y55 5655-Y21
Copyright IBM Corp. 1988, 2019.  All Rights Reserved.

Type 'help' for a list of available commands.
Type 'help' followed by a command name for more
information on commands.

CPLEX> Logfile 'cplex.log' closed.
Logfile 'C:\Users\llavin\Desktop\test919\logs\tmpoe_6uv96.cplex.log' open.
CPLEX> New value for parallel optimization mode: -1
CPLEX> New value for mixed integer optimality gap tolerance: 0.01
CPLEX> New value for integrality tolerance: 1e-09
CPLEX> New value for feasibility tolerance: 0.01
CPLEX> New value for deterministic time limit in ticks: 75000
CPLEX> Problem 'C:\Users\llavin\Desktop\test919\logs\tmp96_cb_pc.pyomo.lp' read.
Read time = 0.23 sec. (14.81 ticks)
CPLEX> MIP start file 'C:\Users\llavin\Desktop\test919\logs\tmpv9xfdb9x.cplex.mst' read.
CPLEX> Problem name         : C:\Users\llavin\Desktop\test919\logs\tmp96_cb_pc.pyomo.lp
Objective sense      : Maximize
Variables            :   54525  [Nneg: 1,  Box: 22720,  Free: 4464,
                                 Binary: 27340]
Objective nonzeros   :    9675
Linear constraints   :  123205  [Less: 41346,  Greater: 59096,  Equal: 22763]
  Nonzeros           :  291800
  RHS nonzeros       :   67464

Variables            : Min LB: -5000.000        Max UB: 1000000.       
Objective nonzeros   : Min   : 0.4083333        Max   : 722.0000       
Linear constraints   :
  Nonzeros           : Min   : 0.4083333        Max   : 1000000.       
  RHS nonzeros       : Min   : 0.4083333        Max   : 1000000.       
CPLEX> CPXPARAM_Parallel                                -1
CPXPARAM_Simplex_Tolerances_Feasibility          0.01
CPXPARAM_DetTimeLimit                            75000
CPXPARAM_MIP_Tolerances_MIPGap                   0.01
CPXPARAM_MIP_Tolerances_Integrality              1.0000000000000001e-09
Warning:  No solution found from 1 MIP starts.
Retaining values of one MIP start for possible repair.
Tried aggregator 3 times.
MIP Presolve eliminated 88643 rows and 19663 columns.
MIP Presolve added 3365 rows and 0 columns.
MIP Presolve modified 24808 coefficients.
Aggregator did 12963 substitutions.
Reduced MIP has 24964 rows, 21343 columns, and 71228 nonzeros.
Reduced MIP has 8411 binaries, 0 generals, 0 SOSs, and 0 indicators.
Presolve time = 0.30 sec. (176.42 ticks)
Probing fixed 403 vars, tightened 2832 bounds.
Probing time = 1.25 sec. (904.11 ticks)
Tried aggregator 2 times.
MIP Presolve eliminated 909 rows and 806 columns.
MIP Presolve modified 2191 coefficients.
Aggregator did 44 substitutions.
Reduced MIP has 24011 rows, 20493 columns, and 68472 nonzeros.
Reduced MIP has 8008 binaries, 0 generals, 0 SOSs, and 0 indicators.
Presolve time = 0.11 sec. (67.27 ticks)
Probing time = 0.03 sec. (16.34 ticks)
Clique table members: 6524.
MIP emphasis: balance optimality and feasibility.
MIP search method: dynamic search.
Parallel mode: opportunistic, using up to 32 threads.
Root relaxation solution time = 0.42 sec. (324.44 ticks)

        Nodes                                         Cuts/
   Node  Left     Objective  IInf  Best Integer    Best Bound    ItCnt     Gap

      0     0    77947.6909  2056                  77947.6909     7524         
      0     0    77889.8419   692                  Cuts: 1032     8066         
      0     0    77774.2637   520                   Cuts: 718     8425         
      0     0    77736.5771   413                   Cuts: 350     8571         
      0     0    77721.9799   377                   Cuts: 155     8654         
      0     0    77712.5278   368                    Cuts: 93     8694         
      0     0    77705.3264   352                    Cuts: 56     8720         
      0     0    77700.8658   347                    Cuts: 43     8735         
      0     0    77697.6418   343                    Cuts: 31     8746         
Repair heuristic found nothing.
      0    11    72147.7246   281                    Cuts: 39     8904         
Elapsed time = 11.30 sec. (7015.23 ticks, tree = 0.02 MB, solutions = 0)
    388    85    71783.3522   247                  77354.2382    10733         
    778   506    71319.5474   240                  77337.8186    15297         
   1303  1017    70297.4856   215                  77337.8186    19034         
   1875  1663    75272.6986   239                  77337.8186    27079         
   2478  1806    53114.8044   198                  77337.8186    29386         
   3068  2015    67899.9972   147                  77337.8186    33570         
   3675  2682    76943.7135   284                  77337.8186    40962         
   4337  2990    56155.0551   156                  77337.8186    41787         
   5054  3884    67163.0225   118                  77337.8186    46075         
   7780  5858    73570.3279   162                  77337.8186    49489         
Elapsed time = 29.36 sec. (10118.69 ticks, tree = 47.34 MB, solutions = 3)
*  7857+ 3862                        68435.7969    77337.8186            13.01%
*  8662  6804      integral     0    68948.6999    77337.8186    52829   12.17%
   8800  4272        cutoff          68948.6999    77325.0078    69484   12.15%
   9160   314    75863.0979   152    68948.6999    77189.9470    74742   11.95%
  11099  1769    75280.3853   103    68948.6999    77189.9470    90314   11.95%
  13716  2180    75765.6003   162    68948.6999    77155.9438    94720   11.90%
  16406  4370    73302.7513    82    73134.0356    77126.7848   118639    5.46%
  17611  5404    74208.4645   112    73134.0356    77126.7848   149480    5.46%
  18809  5645    73174.6931    74    73136.8716    77126.7848   151717    5.46%
  21309  6034    75031.0659   107    73136.8716    77126.7848   155497    5.46%
Elapsed time = 74.75 sec. (23897.87 ticks, tree = 61.02 MB, solutions = 5)
* 23360  8445      integral     0    74698.9950    77126.7848   175902    3.25%
  24262  7475    75489.5798   103    74698.9950    77043.0181   169279    3.14%
* 25924  6294      integral     0    74731.6958    77043.0017   194110    3.09%
  27119  5909    74758.4630    90    74731.6958    77043.0017   186839    3.09%
  30254  7719    75282.9063    77    74942.4270    77009.9470   215332    2.76%
  32769  7705    75205.8535   115    75039.8216    76755.1655   242044    2.29%
  35218  7976        cutoff          75130.7676    76666.3092   247160    2.04%
* 36020  8880      integral     0    75167.7098    76666.3092   257779    1.99%
  37628  9159    75186.7038   100    75167.7098    76666.3092   274263    1.99%
  39609  9878    75488.0814   158    75167.7098    76515.6213   294927    1.79%
* 40987 11067      integral     0    75207.5418    76515.6213   308713    1.74%
  41754  9351    75250.6868   141    75210.8032    76509.5693   286551    1.73%
  44266 10110    75487.2865   140    75210.8032    76481.8242   297684    1.69%
  46700 11289    75678.7144   145    75237.3555    76469.1456   332304    1.64%
Elapsed time = 124.63 sec. (33438.98 ticks, tree = 120.04 MB, solutions = 24)
  48784 11772    75484.4007    87    75283.9873    76469.1456   338416    1.57%
  49695 14041    76082.2760   163    75283.9873    76450.3767   387529    1.55%
  50487 14335    76153.8575   149    75283.9873    76446.5397   391754    1.54%
  52414 13847    76179.5759   157    75283.9873    76445.1600   384028    1.54%
  55256 14501    75588.9151   143    75441.2883    76445.1600   394247    1.33%
  58151 14503    75708.5328    91    75450.2339    76443.2075   394096    1.32%
  60771 14766    75472.7671   103    75450.2339    76439.1455   456431    1.31%
* 62861 12874      integral     0    75475.2266    76439.1455   427645    1.28%
  63249 15271    76346.5677   194    75475.2266    76423.3227   478478    1.26%
  65674 15554    75764.6129   113    75475.2266    76417.1726   482596    1.25%
  68058 16169    75563.5183   104    75475.2266    76402.3563   492254    1.23%
Elapsed time = 179.02 sec. (42982.75 ticks, tree = 192.22 MB, solutions = 30)
  70531 19942    75655.5401    97    75475.2266    76401.9490   544963    1.23%
  73432 19335    75511.9843   150    75475.2266    76400.1335   535878    1.23%
  76428 18032    75603.2103   126    75475.2266    76400.1335   518183    1.23%
* 78013 20734      integral     0    75475.8254    76400.1335   555598    1.22%
  78971 22897    75744.5960   154    75475.8254    76400.1335   587250    1.22%
  80576 22641    infeasible          75475.8254    76400.1335   582043    1.22%
  81166 22986    75727.0963   127    75475.8254    76400.1335   587395    1.22%
  81197 28241        cutoff          75475.8254    76399.7005   665166    1.22%
  81961    91        cutoff          75475.8254    76399.7005   668815    1.22%
  83757   566    76927.5058   155    75475.8254    76399.7005   680135    1.22%
  86994  1064    75521.7727   112    75539.4092    76399.7005   689105    1.14%
Elapsed time = 212.84 sec. (56138.48 ticks, tree = 10.04 MB, solutions = 32)
  89639  3312        cutoff          75586.7978    76399.7005   726938    1.08%
  91042  4615    76321.8511   131    75586.7978    76399.7005   767631    1.08%
  92550  5285    75855.6685    89    75589.0151    76399.7005   792787    1.07%
  93295  6097    75619.2702   148    75589.0151    76399.7005   822391    1.07%

GUB cover cuts applied:  1
Clique cuts applied:  13
Cover cuts applied:  14
Implied bound cuts applied:  36
Flow cuts applied:  499
Mixed integer rounding cuts applied:  101
Gomory fractional cuts applied:  122

Root node processing (before b&c):
  Real time             =    9.70 sec. (6993.71 ticks)
Parallel b&c, 32 threads:
  Real time             =  212.11 sec. (53122.27 ticks)
  Sync time (average)   =    4.76 sec.
  Wait time (average)   =    0.42 sec.
                          ------------
Total (root+branch&cut) =  221.81 sec. (60115.97 ticks)

Solution pool: 34 solutions saved.

MIP - Integer optimal, tolerance (0.01/1e-06):  Objective =  7.5589015142e+04
Current MIP best bound =  7.6344199978e+04 (gap = 755.185, 1.00%)
Solution time =  221.88 sec.  Iterations = 824724  Nodes = 93321 (6248)
Deterministic time = 60116.13 ticks  (270.95 ticks/sec)

CPLEX> Incumbent solution written to file 'C:\Users\llavin\Desktop\test919\logs\tmpgj7tz8_d.cplex.sol'.
CPLEX> Exporting results... 
